networks/zoo_112_1232/zoo_112_1232-lower.txt
Number of groups: 76
Flow 3: {31 33 0} {33 4 1} {4 60 2} 
Flow 25: {1 31 0} {31 14 1} {14 32 2} {32 88 3} 
Flow 39: {14 49 0} {49 105 1} 
Flow 48: {2 5 0} 
Flow 52: {13 51 0} {51 7 1} {7 63 2} 
Flow 75: {3 31 0} {31 52 1} {52 108 2} 
Flow 83: {4 33 0} {33 14 1} {14 70 2} 
Flow 112: {5 9 0} {9 40 1} 
Flow 139: {6 51 0} {51 25 1} {25 81 2} 
Flow 163: {14 54 0} {54 110 1} 
Flow 167: {7 41 0} {41 9 1} {9 65 2} 
Flow 189: {8 5 0} {5 51 1} {51 13 2} 
Flow 205: {20 19 0} {19 75 1} 
Flow 213: {13 30 0} {30 28 1} {28 84 2} 
Flow 230: {33 47 0} {47 103 1} 
Flow 243: {10 9 0} 
Flow 251: {11 19 0} {19 20 1} 
Flow 252: {12 26 0} 
Flow 262: {5 8 0} {8 64 1} 
Flow 265: {19 11 0} {11 67 1} 
Flow 266: {26 12 0} {12 68 1} 
Flow 280: {26 27 0} {27 83 1} 
Flow 292: {45 17 0} {17 39 1} {39 95 2} 
Flow 299: {45 46 0} {46 102 1} 
Flow 353: {15 30 0} {30 13 1} {13 69 2} 
Flow 423: {9 42 0} {42 56 1} {56 112 2} 
Flow 424: {18 20 0} 
Flow 474: {20 17 0} {17 45 1} {45 38 2} {38 94 3} 
Flow 486: {21 20 0} {20 9 1} {9 51 2} 
Flow 505: {22 20 0} {20 76 1} 
Flow 533: {42 98 0} 
Flow 538: {23 33 0} {33 35 1} {35 55 2} 
Flow 551: {9 20 0} {20 18 1} {18 74 2} 
Flow 557: {24 33 0} {33 31 1} {31 30 2} {30 29 3} {29 85 4} 
Flow 576: {13 53 0} {53 109 1} 
Flow 581: {25 51 0} {51 107 1} 
Flow 608: {55 35 0} {35 91 1} 
Flow 618: {26 55 0} {55 36 1} {36 50 2} {50 106 3} 
Flow 625: {27 26 0} 
Flow 630: {28 30 0} {30 31 1} {31 3 2} {3 59 3} 
Flow 648: {29 30 0} {30 86 1} 
Flow 675: {30 16 0} {16 52 1} {52 34 2} {34 90 3} 
Flow 727: {42 9 0} {9 41 1} {41 97 2} 
Flow 750: {32 14 0} {14 33 1} {33 89 2} 
Flow 814: {34 52 0} {52 16 1} {16 72 2} 
Flow 822: {34 33 0} {33 36 1} {36 92 2} 
Flow 867: {36 33 0} {33 52 1} 
Flow 868: {36 55 0} 
Flow 876: {37 17 0} {17 51 1} {51 33 2} {33 24 3} {24 80 4} 
Flow 885: {38 45 0} 
Flow 896: {39 17 0} {17 73 1} 
Flow 902: {40 9 0} {9 5 1} {5 61 2} 
Flow 903: {40 51 0} {51 6 1} {6 62 2} 
Flow 914: {41 7 0} {7 51 1} 
Flow 944: {51 55 0} {55 111 1} 
Flow 956: {43 45 0} {45 101 1} 
Flow 960: {44 45 0} {45 13 1} {13 42 2} 
Flow 983: {17 20 0} {20 22 1} {22 78 2} 
Flow 1012: {46 45 0} 
Flow 1022: {47 33 0} {33 51 1} {51 9 2} 
Flow 1033: {51 5 0} {5 2 1} {2 58 2} 
Flow 1050: {48 31 0} {31 13 1} {13 26 2} {26 82 3} 
Flow 1070: {49 14 0} 
Flow 1110: {45 43 0} {43 99 1} 
Flow 1123: {52 31 0} {31 1 1} {1 57 2} 
Flow 1133: {16 30 0} {30 15 1} {15 71 2} 
Flow 1138: {20 21 0} {21 77 1} 
Flow 1140: {52 33 0} {33 23 1} {23 79 2} 
Flow 1175: {53 13 0} 
Flow 1185: {54 14 0} {14 31 1} {31 48 2} {48 104 3} 
Flow 1194: {9 10 0} {10 66 1} 
Flow 1213: {35 33 0} {33 34 1} 
Flow 1216: {55 51 0} {51 17 1} {17 37 2} {37 93 3} 
Flow 1218: {51 40 0} {40 96 1} 
Flow 1221: {55 26 0} {26 13 1} {13 45 2} {45 44 3} {44 100 4} 
Flow 1229: {56 42 0} {42 13 1} {13 31 2} {31 87 3} 
Time taken running everything: 25 seconds
