networks/zoo_112_1232/zoo_112_1232-lower.sol
<?xml version = "1.0" encoding="UTF-8" standalone="yes"?>
<CPLEXSolution version="1.2">
 <header
   problemName="networks/zoo_112_1232/zoo_112_1232-lower.lp"
   solutionName="incumbent"
   solutionIndex="-1"
   objectiveValue="56"
   solutionTypeValue="3"
   solutionTypeString="primal"
   solutionStatusValue="101"
   solutionStatusString="integer optimal solution"
   solutionMethodString="mip"
   primalFeasible="1"
   dualFeasible="1"
   MIPNodes="0"
   MIPIterations="0"
   writeLevel="3"/>
 <quality
   epInt="1.0000000000000001e-05"
   epRHS="9.9999999999999995e-07"
   maxIntInfeas="0"
   maxPrimalInfeas="0"
   maxX="1"
   maxSlack="1"/>
 <variables>
  <variable name="Y(1,2)" index="1" value="1"/>
  <variable name="Y(2,3)" index="114" value="1"/>
  <variable name="Y(3,4)" index="227" value="1"/>
  <variable name="Y(4,5)" index="340" value="1"/>
  <variable name="Y(5,6)" index="453" value="1"/>
  <variable name="Y(6,7)" index="566" value="1"/>
  <variable name="Y(7,9)" index="680" value="1"/>
  <variable name="Y(8,10)" index="793" value="1"/>
  <variable name="Y(9,13)" index="908" value="1"/>
  <variable name="Y(10,14)" index="1021" value="1"/>
  <variable name="Y(11,15)" index="1134" value="1"/>
  <variable name="Y(12,16)" index="1247" value="1"/>
  <variable name="Y(13,17)" index="1360" value="1"/>
  <variable name="Y(14,18)" index="1473" value="1"/>
  <variable name="Y(15,20)" index="1587" value="1"/>
  <variable name="Y(16,21)" index="1700" value="1"/>
  <variable name="Y(17,22)" index="1813" value="1"/>
  <variable name="Y(18,23)" index="1926" value="1"/>
  <variable name="Y(19,24)" index="2039" value="1"/>
  <variable name="Y(20,25)" index="2152" value="1"/>
  <variable name="Y(21,26)" index="2265" value="1"/>
  <variable name="Y(22,29)" index="2380" value="1"/>
  <variable name="Y(23,30)" index="2493" value="1"/>
  <variable name="Y(24,31)" index="2606" value="1"/>
  <variable name="Y(25,32)" index="2719" value="1"/>
  <variable name="Y(26,33)" index="2832" value="1"/>
  <variable name="Y(27,34)" index="2945" value="1"/>
  <variable name="Y(28,35)" index="3058" value="1"/>
  <variable name="Y(29,36)" index="3171" value="1"/>
  <variable name="Y(30,37)" index="3284" value="1"/>
  <variable name="Y(31,38)" index="3397" value="1"/>
  <variable name="Y(32,40)" index="3511" value="1"/>
  <variable name="Y(33,41)" index="3624" value="1"/>
  <variable name="Y(34,42)" index="3737" value="1"/>
  <variable name="Y(35,43)" index="3850" value="1"/>
  <variable name="Y(36,44)" index="3963" value="1"/>
  <variable name="Y(37,45)" index="4076" value="1"/>
  <variable name="Y(38,48)" index="4191" value="1"/>
  <variable name="Y(39,49)" index="4304" value="1"/>
  <variable name="Y(40,50)" index="4417" value="1"/>
  <variable name="Y(41,51)" index="4530" value="1"/>
  <variable name="Y(42,52)" index="4643" value="1"/>
  <variable name="Y(43,53)" index="4756" value="1"/>
  <variable name="Y(44,54)" index="4869" value="1"/>
  <variable name="Y(45,55)" index="4982" value="1"/>
  <variable name="Y(120,1)" index="13328" value="1"/>
  <variable name="Y(205,19)" index="22866" value="1"/>
  <variable name="Y(213,28)" index="23771" value="1"/>
  <variable name="Y(230,47)" index="25694" value="1"/>
  <variable name="Y(239,56)" index="26711" value="1"/>
  <variable name="Y(262,8)" index="29239" value="1"/>
  <variable name="Y(265,11)" index="29578" value="1"/>
  <variable name="Y(266,12)" index="29691" value="1"/>
  <variable name="Y(280,27)" index="31274" value="1"/>
  <variable name="Y(292,39)" index="32630" value="1"/>
  <variable name="Y(299,46)" index="33421" value="1"/>
  <variable name="X(1,31,1)" index="137984" value="1"/>
  <variable name="X(1,57,120)" index="139335" value="1"/>
  <variable name="X(2,5,46)" index="140493" value="1"/>
  <variable name="X(2,58,1)" index="141680" value="1"/>
  <variable name="X(3,31,50)" index="142961" value="1"/>
  <variable name="X(3,59,2)" index="144145" value="1"/>
  <variable name="X(4,33,78)" index="145453" value="1"/>
  <variable name="X(4,60,3)" index="146610" value="1"/>
  <variable name="X(5,2,1)" index="147840" value="1"/>
  <variable name="X(5,8,262)" index="149333" value="1"/>
  <variable name="X(5,9,97)" index="150400" value="1"/>
  <variable name="X(5,51,46)" index="151581" value="1"/>
  <variable name="X(5,61,4)" index="152771" value="1"/>
  <variable name="X(6,51,120)" index="154119" value="1"/>
  <variable name="X(6,62,5)" index="155236" value="1"/>
  <variable name="X(7,41,152)" index="156615" value="1"/>
  <variable name="X(7,51,165)" index="157860" value="1"/>
  <variable name="X(7,63,6)" index="158933" value="1"/>
  <variable name="X(8,5,177)" index="160336" value="1"/>
  <variable name="X(8,64,262)" index="161653" value="1"/>
  <variable name="X(9,5,192)" index="162815" value="1"/>
  <variable name="X(9,10,8)" index="163863" value="1"/>
  <variable name="X(9,20,14)" index="165101" value="1"/>
  <variable name="X(9,40,112)" index="166431" value="1"/>
  <variable name="X(9,41,33)" index="167584" value="1"/>
  <variable name="X(9,42,114)" index="168897" value="1"/>
  <variable name="X(9,51,191)" index="170206" value="1"/>
  <variable name="X(9,65,7)" index="171254" value="1"/>
  <variable name="X(10,9,240)" index="172719" value="1"/>
  <variable name="X(10,66,8)" index="173719" value="1"/>
  <variable name="X(11,19,245)" index="175188" value="1"/>
  <variable name="X(11,67,265)" index="176440" value="1"/>
  <variable name="X(12,26,252)" index="177659" value="1"/>
  <variable name="X(12,68,266)" index="178905" value="1"/>
  <variable name="X(13,26,21)" index="179892" value="1"/>
  <variable name="X(13,30,100)" index="181203" value="1"/>
  <variable name="X(13,31,46)" index="182381" value="1"/>
  <variable name="X(13,42,7)" index="183574" value="1"/>
  <variable name="X(13,45,13)" index="184812" value="1"/>
  <variable name="X(13,51,1)" index="186032" value="1"/>
  <variable name="X(13,53,43)" index="187306" value="1"/>
  <variable name="X(13,69,9)" index="188504" value="1"/>
  <variable name="X(14,31,310)" index="190037" value="1"/>
  <variable name="X(14,32,25)" index="190984" value="1"/>
  <variable name="X(14,33,311)" index="192502" value="1"/>
  <variable name="X(14,49,39)" index="193462" value="1"/>
  <variable name="X(14,54,44)" index="194699" value="1"/>
  <variable name="X(14,70,10)" index="195897" value="1"/>
  <variable name="X(15,30,351)" index="197470" value="1"/>
  <variable name="X(15,71,11)" index="198362" value="1"/>
  <variable name="X(16,30,362)" index="199945" value="1"/>
  <variable name="X(16,52,358)" index="201173" value="1"/>
  <variable name="X(16,72,12)" index="202059" value="1"/>
  <variable name="X(17,20,391)" index="203670" value="1"/>
  <variable name="X(17,37,30)" index="204541" value="1"/>
  <variable name="X(17,39,292)" index="206035" value="1"/>
  <variable name="X(17,45,408)" index="207383" value="1"/>
  <variable name="X(17,51,378)" index="208585" value="1"/>
  <variable name="X(17,73,13)" index="209452" value="1"/>
  <variable name="X(18,20,424)" index="211095" value="1"/>
  <variable name="X(18,74,14)" index="211917" value="1"/>
  <variable name="X(19,11,265)" index="213400" value="1"/>
  <variable name="X(19,20,245)" index="214612" value="1"/>
  <variable name="X(19,75,205)" index="215804" value="1"/>
  <variable name="X(20,9,245)" index="217076" value="1"/>
  <variable name="X(20,17,433)" index="218496" value="1"/>
  <variable name="X(20,18,14)" index="219309" value="1"/>
  <variable name="X(20,19,205)" index="220732" value="1"/>
  <variable name="X(20,21,16)" index="221775" value="1"/>
  <variable name="X(20,22,17)" index="223008" value="1"/>
  <variable name="X(20,76,15)" index="224238" value="1"/>
  <variable name="X(21,20,486)" index="225941" value="1"/>
  <variable name="X(21,77,16)" index="226703" value="1"/>
  <variable name="X(22,20,500)" index="228419" value="1"/>
  <variable name="X(22,78,17)" index="229168" value="1"/>
  <variable name="X(23,33,512)" index="230895" value="1"/>
  <variable name="X(23,79,18)" index="231633" value="1"/>
  <variable name="X(24,33,539)" index="233386" value="1"/>
  <variable name="X(24,80,19)" index="234098" value="1"/>
  <variable name="X(25,51,578)" index="235889" value="1"/>
  <variable name="X(25,81,20)" index="236563" value="1"/>
  <variable name="X(26,12,266)" index="238041" value="1"/>
  <variable name="X(26,13,252)" index="239259" value="1"/>
  <variable name="X(26,27,280)" index="240519" value="1"/>
  <variable name="X(26,55,608)" index="242079" value="1"/>
  <variable name="X(26,82,21)" index="242724" value="1"/>
  <variable name="X(27,26,623)" index="244558" value="1"/>
  <variable name="X(27,83,280)" index="245447" value="1"/>
  <variable name="X(28,30,630)" index="247029" value="1"/>
  <variable name="X(28,84,213)" index="247844" value="1"/>
  <variable name="X(29,30,644)" index="249507" value="1"/>
  <variable name="X(29,85,22)" index="250117" value="1"/>
  <variable name="X(30,13,351)" index="251678" value="1"/>
  <variable name="X(30,15,11)" index="252570" value="1"/>
  <variable name="X(30,16,12)" index="253803" value="1"/>
  <variable name="X(30,28,213)" index="255236" value="1"/>
  <variable name="X(30,29,22)" index="256277" value="1"/>
  <variable name="X(30,31,354)" index="257841" value="1"/>
  <variable name="X(30,86,23)" index="258742" value="1"/>
  <variable name="X(31,1,120)" index="260071" value="1"/>
  <variable name="X(31,3,2)" index="261185" value="1"/>
  <variable name="X(31,13,1)" index="262416" value="1"/>
  <variable name="X(31,14,10)" index="263657" value="1"/>
  <variable name="X(31,30,11)" index="264890" value="1"/>
  <variable name="X(31,33,3)" index="266114" value="1"/>
  <variable name="X(31,48,38)" index="267381" value="1"/>
  <variable name="X(31,52,42)" index="268617" value="1"/>
  <variable name="X(31,87,24)" index="269831" value="1"/>
  <variable name="X(32,14,743)" index="271782" value="1"/>
  <variable name="X(32,88,25)" index="272296" value="1"/>
  <variable name="X(33,4,3)" index="273506" value="1"/>
  <variable name="X(33,14,83)" index="274818" value="1"/>
  <variable name="X(33,23,18)" index="275985" value="1"/>
  <variable name="X(33,24,19)" index="277218" value="1"/>
  <variable name="X(33,31,78)" index="278509" value="1"/>
  <variable name="X(33,34,27)" index="279690" value="1"/>
  <variable name="X(33,35,28)" index="280923" value="1"/>
  <variable name="X(33,36,29)" index="282156" value="1"/>
  <variable name="X(33,47,230)" index="283589" value="1"/>
  <variable name="X(33,51,79)" index="284670" value="1"/>
  <variable name="X(33,52,93)" index="285916" value="1"/>
  <variable name="X(33,89,26)" index="287081" value="1"/>
  <variable name="X(34,33,807)" index="289094" value="1"/>
  <variable name="X(34,52,814)" index="290333" value="1"/>
  <variable name="X(34,90,27)" index="290778" value="1"/>
  <variable name="X(35,33,831)" index="292814" value="1"/>
  <variable name="X(35,55,350)" index="293565" value="1"/>
  <variable name="X(35,91,28)" index="294475" value="1"/>
  <variable name="X(36,33,852)" index="296531" value="1"/>
  <variable name="X(36,50,40)" index="296951" value="1"/>
  <variable name="X(36,55,868)" index="299011" value="1"/>
  <variable name="X(36,92,29)" index="299404" value="1"/>
  <variable name="X(37,17,869)" index="301476" value="1"/>
  <variable name="X(37,93,30)" index="301869" value="1"/>
  <variable name="X(38,45,883)" index="303954" value="1"/>
  <variable name="X(38,94,31)" index="304334" value="1"/>
  <variable name="X(39,17,892)" index="306427" value="1"/>
  <variable name="X(39,95,292)" index="307059" value="1"/>
  <variable name="X(40,9,902)" index="308901" value="1"/>
  <variable name="X(40,51,903)" index="310134" value="1"/>
  <variable name="X(40,96,32)" index="310495" value="1"/>
  <variable name="X(41,7,197)" index="311892" value="1"/>
  <variable name="X(41,9,167)" index="313094" value="1"/>
  <variable name="X(41,97,33)" index="314192" value="1"/>
  <variable name="X(42,9,7)" index="315398" value="1"/>
  <variable name="X(42,13,921)" index="317544" value="1"/>
  <variable name="X(42,56,239)" index="318094" value="1"/>
  <variable name="X(42,98,34)" index="319121" value="1"/>
  <variable name="X(43,45,945)" index="321264" value="1"/>
  <variable name="X(43,99,35)" index="321586" value="1"/>
  <variable name="X(44,45,959)" index="323742" value="1"/>
  <variable name="X(44,100,36)" index="324051" value="1"/>
  <variable name="X(45,13,883)" index="326130" value="1"/>
  <variable name="X(45,17,13)" index="326492" value="1"/>
  <variable name="X(45,38,31)" index="327742" value="1"/>
  <variable name="X(45,43,35)" index="328978" value="1"/>
  <variable name="X(45,44,36)" index="330211" value="1"/>
  <variable name="X(45,46,299)" index="331706" value="1"/>
  <variable name="X(45,101,37)" index="332676" value="1"/>
  <variable name="X(46,45,1010)" index="334881" value="1"/>
  <variable name="X(46,102,299)" index="335402" value="1"/>
  <variable name="X(47,33,1019)" index="337354" value="1"/>
  <variable name="X(47,103,230)" index="337797" value="1"/>
  <variable name="X(48,31,1033)" index="339832" value="1"/>
  <variable name="X(48,104,38)" index="340069" value="1"/>
  <variable name="X(49,14,1070)" index="342333" value="1"/>
  <variable name="X(49,105,39)" index="342534" value="1"/>
  <variable name="X(50,106,40)" index="343767" value="1"/>
  <variable name="X(51,5,1)" index="344960" value="1"/>
  <variable name="X(51,6,5)" index="346196" value="1"/>
  <variable name="X(51,7,6)" index="347429" value="1"/>
  <variable name="X(51,9,81)" index="348736" value="1"/>
  <variable name="X(51,13,46)" index="349933" value="1"/>
  <variable name="X(51,17,84)" index="351203" value="1"/>
  <variable name="X(51,25,20)" index="352371" value="1"/>
  <variable name="X(51,33,47)" index="353630" value="1"/>
  <variable name="X(51,40,32)" index="354847" value="1"/>
  <variable name="X(51,55,45)" index="356092" value="1"/>
  <variable name="X(51,107,41)" index="357320" value="1"/>
  <variable name="X(52,16,320)" index="358831" value="1"/>
  <variable name="X(52,31,358)" index="360101" value="1"/>
  <variable name="X(52,33,359)" index="361334" value="1"/>
  <variable name="X(52,34,370)" index="362577" value="1"/>
  <variable name="X(52,108,42)" index="363481" value="1"/>
  <variable name="X(53,13,1165)" index="365836" value="1"/>
  <variable name="X(53,109,43)" index="365946" value="1"/>
  <variable name="X(54,14,1177)" index="368312" value="1"/>
  <variable name="X(54,110,44)" index="368411" value="1"/>
  <variable name="X(55,26,1187)" index="370786" value="1"/>
  <variable name="X(55,35,608)" index="371439" value="1"/>
  <variable name="X(55,36,609)" index="372672" value="1"/>
  <variable name="X(55,51,1188)" index="374483" value="1"/>
  <variable name="X(55,111,45)" index="374572" value="1"/>
  <variable name="X(56,42,1229)" index="376988" value="1"/>
  <variable name="X(56,112,239)" index="377230" value="1"/>
 </variables>
</CPLEXSolution>
